s td 151 8 184
b 1 41 44 46
b 2 42 43 45
b 3 43 45 173
b 4 44 46 174
b 5 45 53 173
b 6 46 54 174
b 7 97 100 102
b 8 98 99 101
b 9 99 101 167
b 10 100 102 168
b 11 101 167 181
b 12 102 168 182
b 13 163 166 168
b 14 164 165 167
b 15 9 165 167
b 16 10 166 168
b 17 9 167 181
b 18 10 168 182
b 19 169 172 174
b 20 170 171 173
b 21 119 171 173
b 22 120 172 174
b 23 53 119 173
b 24 54 120 174
b 25 1 2 8 9 39 40 107 183
b 26 2 3 8 9 183
b 27 2 3 5 183
b 28 1 2 6 9 39 40 107 183
b 29 2 4 6 9 107
b 30 2 4 7 107
b 31 1 2 6 9 10 39 40 183
b 32 6 9 10 39 40 182 183
b 33 6 9 39 40 180 182 183
b 34 6 9 39 176 180 182 183
b 35 6 176 180 182 184
b 36 175 180 182 184
b 37 39 176 179 182 183
b 38 177 179 182 183
b 39 9 176 180 181 183
b 40 178 180 181 183
b 41 8 35 36 39 40 73 74 107
b 42 25 26 35 36 39 40 73 74
b 43 25 26 73 74 75 76 127 128
b 44 73 74 75 76 127 128 161 162
b 45 93 94 127 128 157 158 161 162
b 46 93 94 151 152 157 158 161 162
b 47 17 18 93 94 147 148 151 152
b 48 17 18 141 142 147 148 151 152
b 49 17 18 85 86 137 138 141 142
b 50 17 18 20 85 86 137 138
b 51 17 18 19 20 85 86 137
b 52 16 17 18 19 20 86
b 53 11 16 18 20
b 54 14 16 17 19
b 55 15 17 18 19 20 85
b 56 12 15 17 20
b 57 13 15 18 19
b 58 65 66 85 86 137 138 141 142
b 59 55 64 65 66 81 82 85 86
b 60 55 64 78 81 82 85 86 122
b 61 55 64 78 82 85 121 122
b 62 47 48 55 64 121 122
b 63 47 48 55 113 114 121 122
b 64 47 48 55 113 114 120 121
b 65 47 48 55 114 117 120 121
b 66 47 48 54 55 117 120
b 67 48 51 54 55 117
b 68 49 51 54 55
b 69 115 117 120 121
b 70 47 48 53 55 113 114 121
b 71 47 52 53 55 113 114 121
b 72 50 52 53 55
b 73 52 53 113 114 116 121
b 74 52 113 116 118
b 75 53 114 116 119
b 76 47 48 56 64
b 77 78 82 83 85 121
b 78 80 82 83 85
b 79 79 81 82 85 86 122
b 80 79 82 84 86 122
b 81 77 82 84 86
b 82 55 63 64 65 66 81 82
b 83 60 63 64 65 66 82
b 84 57 60 64 66 82
b 85 57 60 62 82
b 86 58 63 64 65 66 81
b 87 58 59 64 65 81
b 88 58 59 61 81
b 89 66 133 137 138 141 142
b 90 66 133 135 137 141
b 91 66 133 135 140
b 92 65 134 137 138 141 142
b 93 65 134 136 138 141
b 94 65 134 136 139
b 95 142 147 148 150 151 152
b 96 143 148 150 152
b 97 145 147 150 151
b 98 141 147 148 149 151 152
b 99 144 147 149 152
b 100 146 148 149 151
b 101 17 18 93 94 96 147 148
b 102 17 93 94 95 96 147 148
b 103 87 93 94 95 96 148
b 104 87 90 93 95 148
b 105 87 90 92 148
b 106 91 93 94 95 96 147
b 107 88 91 93 96
b 108 89 91 94 95
b 109 152 155 157 158 161 162
b 110 152 153 155 158 162
b 111 152 153 155 160
b 112 151 157 158 159 161 162
b 113 154 157 159 162
b 114 156 158 159 161
b 115 93 94 127 128 132 157 158
b 116 93 127 128 131 132 157 158
b 117 123 127 128 131 132 158
b 118 123 125 127 131 158
b 119 123 125 130 158
b 120 127 128 129 131 132 157
b 121 124 127 129 132
b 122 126 128 129 131
b 123 72 73 74 75 76 162
b 124 67 72 74 76
b 125 70 72 73 75
b 126 69 73 74 75 76 161
b 127 68 69 73 76 161
b 128 68 69 71 161
b 129 25 26 30 75 76 127 128
b 130 25 26 29 30 75 127 128
b 131 21 25 26 29 30 128
b 132 21 25 28 29 128
b 133 23 25 28 29
b 134 22 25 26 29 30 127
b 135 22 26 27 29 127
b 136 24 26 27 29
b 137 26 35 36 38 39 40
b 138 31 36 38 40
b 139 33 35 38 39
b 140 25 32 35 36 39 40
b 141 25 32 34 36 39
b 142 25 32 34 37
b 143 8 35 36 73 74 107 110
b 144 8 35 73 74 106 107 110
b 145 8 35 74 104 106 107 110
b 146 8 74 104 106 108 110
b 147 74 103 104 108 110
b 148 74 103 104 112
b 149 35 104 106 109
b 150 73 106 107 110 111
b 151 105 107 110 111
1 4
2 3
3 5
4 6
5 23
6 24
7 10
8 9
9 11
10 12
11 17
12 18
13 16
14 15
15 17
16 18
17 39
18 32
19 22
20 21
21 23
22 24
23 75
24 66
25 26
25 28
25 41
26 27
28 29
28 31
29 30
31 32
32 33
33 34
34 35
34 37
34 39
35 36
37 38
39 40
41 42
41 143
42 43
42 137
42 140
43 44
43 129
44 45
44 123
44 126
45 46
45 115
46 47
46 109
46 112
47 48
47 101
48 49
48 95
48 98
49 50
49 58
50 51
51 52
51 55
52 53
52 54
55 56
55 57
58 59
58 89
58 92
59 60
59 82
60 61
60 79
61 62
61 77
62 63
62 76
63 64
63 70
64 65
65 66
65 69
66 67
67 68
70 71
71 72
71 73
73 74
73 75
77 78
79 80
80 81
82 83
82 86
83 84
84 85
86 87
87 88
89 90
90 91
92 93
93 94
95 96
95 97
98 99
98 100
101 102
102 103
102 106
103 104
104 105
106 107
106 108
109 110
110 111
112 113
112 114
115 116
116 117
116 120
117 118
118 119
120 121
120 122
123 124
123 125
126 127
127 128
129 130
130 131
130 134
131 132
132 133
134 135
135 136
137 138
137 139
140 141
141 142
143 144
144 145
144 150
145 146
145 149
146 147
147 148
150 151
